c FILE /home/rafael/Documents/HappySet/MIHS/inputs/happygen/output/graph_d_regular_k4_p0.5_v100_20241127_084035.txt
c SOURCE This is a d-regular graph formed for the happy graph colouring problem.
c DESCRIPTION It was generated using the problem generator of Rhyd Lewis
c
c GRAPH STATS
c Seed                             = 608099595
c Number of Nodes                  = 100
c Number of colours k              = 4
c Number of pre-assignments        = 50
c Degree of all vertices           = 6
c Density                          = 0.0606061
c 
c The degrees of nodes 1 to 100, respectively, are as follows 
c [6, 6, 6, 6, 6, 6, 6, 6, 6, 6, 6, 6, 6, 6, 6, 6, 6, 6, 6, 6, 6, 6, 6, 6, 6, 6, 
c  6, 6, 6, 6, 6, 6, 6, 6, 6, 6, 6, 6, 6, 6, 6, 6, 6, 6, 6, 6, 6, 6, 6, 6, 6, 
c  6, 6, 6, 6, 6, 6, 6, 6, 6, 6, 6, 6, 6, 6, 6, 6, 6, 6, 6, 6, 6, 6, 6, 6, 6, 
c  6, 6, 6, 6, 6, 6, 6, 6, 6, 6, 6, 6, 6, 6, 6, 6, 6, 6, 6, 6, 6, 6, 6, 6] 
c  
p edge 100 300 4
e 1 6
e 1 13
e 1 46
e 1 62
e 1 68
e 1 72
e 2 7
e 2 14
e 2 43
e 2 47
e 2 95
e 2 100
e 3 16
e 3 29
e 3 60
e 3 74
e 3 75
e 3 80
e 4 29
e 4 32
e 4 35
e 4 59
e 4 77
e 4 85
e 5 25
e 5 48
e 5 49
e 5 50
e 5 86
e 5 97
e 6 26
e 6 66
e 6 67
e 6 71
e 6 72
e 7 21
e 7 49
e 7 76
e 7 80
e 7 93
e 8 22
e 8 40
e 8 49
e 8 68
e 8 74
e 8 87
e 9 12
e 9 19
e 9 37
e 9 57
e 9 70
e 9 90
e 10 14
e 10 30
e 10 41
e 10 53
e 10 64
e 10 85
e 11 21
e 11 31
e 11 50
e 11 64
e 11 77
e 11 87
e 12 19
e 12 22
e 12 42
e 12 44
e 12 53
e 13 20
e 13 35
e 13 81
e 13 87
e 13 89
e 14 31
e 14 48
e 14 93
e 14 98
e 15 31
e 15 42
e 15 71
e 15 74
e 15 90
e 15 92
e 16 20
e 16 42
e 16 44
e 16 55
e 16 64
e 17 51
e 17 68
e 17 89
e 17 94
e 17 95
e 17 96
e 18 25
e 18 28
e 18 31
e 18 36
e 18 54
e 18 86
e 19 21
e 19 33
e 19 55
e 19 70
e 20 33
e 20 43
e 20 46
e 20 76
e 21 33
e 21 36
e 21 97
e 22 27
e 22 55
e 22 63
e 22 79
e 23 52
e 23 61
e 23 70
e 23 73
e 23 77
e 23 90
e 24 39
e 24 47
e 24 50
e 24 68
e 24 70
e 24 83
e 25 60
e 25 69
e 25 73
e 25 98
e 26 43
e 26 51
e 26 67
e 26 83
e 26 99
e 27 39
e 27 53
e 27 64
e 27 77
e 27 84
e 28 40
e 28 56
e 28 79
e 28 92
e 28 99
e 29 53
e 29 58
e 29 89
e 29 99
e 30 38
e 30 41
e 30 45
e 30 47
e 30 71
e 31 78
e 31 94
e 32 39
e 32 78
e 32 90
e 32 91
e 32 100
e 33 34
e 33 59
e 33 70
e 34 35
e 34 43
e 34 47
e 34 56
e 34 84
e 35 63
e 35 92
e 35 95
e 36 38
e 36 44
e 36 86
e 36 93
e 37 69
e 37 77
e 37 86
e 37 98
e 37 100
e 38 39
e 38 46
e 38 71
e 38 85
e 39 51
e 39 97
e 40 56
e 40 61
e 40 69
e 40 72
e 41 45
e 41 48
e 41 61
e 41 81
e 42 58
e 42 66
e 42 74
e 43 48
e 43 88
e 44 57
e 44 74
e 44 89
e 45 51
e 45 76
e 45 81
e 45 88
e 46 49
e 46 52
e 46 87
e 47 50
e 47 84
e 48 72
e 48 82
e 49 67
e 49 79
e 50 88
e 50 96
e 51 62
e 51 97
e 52 63
e 52 73
e 52 98
e 52 100
e 53 60
e 53 72
e 54 59
e 54 67
e 54 69
e 54 79
e 54 82
e 55 64
e 55 69
e 55 78
e 56 58
e 56 62
e 56 96
e 57 59
e 57 80
e 57 91
e 57 98
e 58 80
e 58 88
e 58 92
e 59 67
e 59 100
e 60 81
e 60 89
e 60 96
e 61 68
e 61 71
e 61 96
e 62 65
e 62 68
e 62 94
e 63 70
e 63 76
e 63 97
e 64 99
e 65 83
e 65 88
e 65 94
e 65 95
e 65 97
e 66 74
e 66 78
e 66 84
e 66 91
e 67 87
e 69 100
e 71 79
e 72 86
e 73 90
e 73 94
e 73 99
e 75 81
e 75 83
e 75 92
e 75 95
e 75 99
e 76 82
e 76 86
e 77 93
e 78 90
e 78 91
e 79 98
e 80 84
e 80 91
e 81 84
e 82 83
e 82 92
e 82 95
e 83 91
e 85 87
e 85 88
e 85 94
e 89 93
e 93 96
n 1 2
n 7 3
n 8 2
n 9 4
n 12 4
n 13 2
n 16 1
n 17 2
n 19 4
n 23 1
n 24 2
n 26 2
n 27 1
n 29 2
n 31 3
n 33 4
n 36 2
n 40 2
n 41 2
n 43 2
n 45 2
n 46 2
n 48 2
n 50 2
n 54 2
n 56 2
n 60 2
n 62 2
n 63 4
n 64 1
n 68 2
n 69 2
n 71 3
n 72 2
n 74 2
n 77 1
n 78 3
n 83 2
n 84 1
n 85 2
n 86 2
n 87 2
n 88 2
n 89 2
n 92 4
n 95 2
n 96 2
n 97 4
n 98 1
n 100 2
